c This file is generated by v2cnfMtr
c Generated on Tue Feb 16 22:17:55 2016
p cnf 375 946
-3 -4 -22 0
3 22 0
4 22 0
-2 -22 -21 0
2 21 0
22 21 0
-22 -5 -23 0
22 23 0
5 23 0
-20 -21 -18 0
20 18 0
21 18 0
-21 -23 -19 0
21 19 0
23 19 0
8 24 0
-8 -24 0
9 25 0
-9 -25 0
1 26 0
-1 -26 0
-1 -24 28 0
1 -28 0
24 -28 0
-26 -24 29 0
26 -29 0
24 -29 0
-6 -8 30 0
6 -30 0
8 -30 0
-7 -8 31 0
7 -31 0
8 -31 0
-28 -25 42 0
28 -42 0
25 -42 0
-29 -9 35 0
29 -35 0
9 -35 0
-30 -25 33 0
30 -33 0
25 -33 0
-31 -9 32 0
31 -32 0
9 -32 0
32 33 -34 0
-32 34 0
-33 34 0
34 35 -36 0
-34 36 0
-35 36 0
42 36 -27 0
-42 27 0
-36 27 0
10 38 0
-10 -38 0
11 39 0
-11 -39 0
3 40 0
-3 -40 0
-3 -38 42 0
3 -42 0
38 -42 0
-40 -38 43 0
40 -43 0
38 -43 0
-6 -10 44 0
6 -44 0
10 -44 0
-7 -10 45 0
7 -45 0
10 -45 0
-42 -39 56 0
42 -56 0
39 -56 0
-43 -11 49 0
43 -49 0
11 -49 0
-44 -39 47 0
44 -47 0
39 -47 0
-45 -11 46 0
45 -46 0
11 -46 0
46 47 -48 0
-46 48 0
-47 48 0
48 49 -50 0
-48 50 0
-49 50 0
56 50 -41 0
-56 41 0
-50 41 0
12 52 0
-12 -52 0
13 53 0
-13 -53 0
4 54 0
-4 -54 0
-4 -52 56 0
4 -56 0
52 -56 0
-54 -52 57 0
54 -57 0
52 -57 0
-6 -12 58 0
6 -58 0
12 -58 0
-7 -12 59 0
7 -59 0
12 -59 0
-56 -53 70 0
56 -70 0
53 -70 0
-57 -13 63 0
57 -63 0
13 -63 0
-58 -53 61 0
58 -61 0
53 -61 0
-59 -13 60 0
59 -60 0
13 -60 0
60 61 -62 0
-60 62 0
-61 62 0
62 63 -64 0
-62 64 0
-63 64 0
70 64 -55 0
-70 55 0
-64 55 0
14 66 0
-14 -66 0
15 67 0
-15 -67 0
5 68 0
-5 -68 0
-5 -66 70 0
5 -70 0
66 -70 0
-68 -66 71 0
68 -71 0
66 -71 0
-6 -14 72 0
6 -72 0
14 -72 0
-7 -14 73 0
7 -73 0
14 -73 0
-70 -67 84 0
70 -84 0
67 -84 0
-71 -15 77 0
71 -77 0
15 -77 0
-72 -67 75 0
72 -75 0
67 -75 0
-73 -15 74 0
73 -74 0
15 -74 0
74 75 -76 0
-74 76 0
-75 76 0
76 77 -78 0
-76 78 0
-77 78 0
84 78 -69 0
-84 69 0
-78 69 0
16 80 0
-16 -80 0
17 81 0
-17 -81 0
83 82 0
-83 -82 0
-83 -80 84 0
83 -84 0
80 -84 0
-82 -80 85 0
82 -85 0
80 -85 0
-6 -16 86 0
6 -86 0
16 -86 0
-7 -16 87 0
7 -87 0
16 -87 0
-84 -81 93 0
84 -93 0
81 -93 0
-85 -17 91 0
85 -91 0
17 -91 0
-86 -81 89 0
86 -89 0
81 -89 0
-87 -17 88 0
87 -88 0
17 -88 0
88 89 -90 0
-88 90 0
-89 90 0
90 91 -92 0
-90 92 0
-91 92 0
93 92 -20 0
-93 20 0
-92 20 0
-27 -41 -55 -69 -83 0
27 83 0
41 83 0
55 83 0
69 83 0
c The second circuit:
-96 -97 -115 0
96 115 0
97 115 0
-95 -115 -114 0
95 114 0
115 114 0
-115 -98 -116 0
115 116 0
98 116 0
-113 -114 -111 0
113 111 0
114 111 0
-114 -116 -112 0
114 112 0
116 112 0
101 117 0
-101 -117 0
102 118 0
-102 -118 0
94 119 0
-94 -119 0
-94 -117 121 0
94 -121 0
117 -121 0
-119 -117 122 0
119 -122 0
117 -122 0
-99 -101 123 0
99 -123 0
101 -123 0
-100 -101 124 0
100 -124 0
101 -124 0
-121 -118 135 0
121 -135 0
118 -135 0
-122 -102 128 0
122 -128 0
102 -128 0
-123 -118 126 0
123 -126 0
118 -126 0
-124 -102 125 0
124 -125 0
102 -125 0
125 126 -127 0
-125 127 0
-126 127 0
127 128 -129 0
-127 129 0
-128 129 0
135 129 -120 0
-135 120 0
-129 120 0
103 131 0
-103 -131 0
104 132 0
-104 -132 0
96 133 0
-96 -133 0
-96 -131 135 0
96 -135 0
131 -135 0
-133 -131 136 0
133 -136 0
131 -136 0
-99 -103 137 0
99 -137 0
103 -137 0
-100 -103 138 0
100 -138 0
103 -138 0
-135 -132 149 0
135 -149 0
132 -149 0
-136 -104 142 0
136 -142 0
104 -142 0
-137 -132 140 0
137 -140 0
132 -140 0
-138 -104 139 0
138 -139 0
104 -139 0
139 140 -141 0
-139 141 0
-140 141 0
141 142 -143 0
-141 143 0
-142 143 0
149 143 -134 0
-149 134 0
-143 134 0
105 145 0
-105 -145 0
106 146 0
-106 -146 0
97 147 0
-97 -147 0
-97 -145 149 0
97 -149 0
145 -149 0
-147 -145 150 0
147 -150 0
145 -150 0
-99 -105 151 0
99 -151 0
105 -151 0
-100 -105 152 0
100 -152 0
105 -152 0
-149 -146 163 0
149 -163 0
146 -163 0
-150 -106 156 0
150 -156 0
106 -156 0
-151 -146 154 0
151 -154 0
146 -154 0
-152 -106 153 0
152 -153 0
106 -153 0
153 154 -155 0
-153 155 0
-154 155 0
155 156 -157 0
-155 157 0
-156 157 0
163 157 -148 0
-163 148 0
-157 148 0
107 159 0
-107 -159 0
108 160 0
-108 -160 0
98 161 0
-98 -161 0
-98 -159 163 0
98 -163 0
159 -163 0
-161 -159 164 0
161 -164 0
159 -164 0
-99 -107 165 0
99 -165 0
107 -165 0
-100 -107 166 0
100 -166 0
107 -166 0
-163 -160 177 0
163 -177 0
160 -177 0
-164 -108 170 0
164 -170 0
108 -170 0
-165 -160 168 0
165 -168 0
160 -168 0
-166 -108 167 0
166 -167 0
108 -167 0
167 168 -169 0
-167 169 0
-168 169 0
169 170 -171 0
-169 171 0
-170 171 0
177 171 -162 0
-177 162 0
-171 162 0
109 173 0
-109 -173 0
110 174 0
-110 -174 0
176 175 0
-176 -175 0
-176 -173 177 0
176 -177 0
173 -177 0
-175 -173 178 0
175 -178 0
173 -178 0
-99 -109 179 0
99 -179 0
109 -179 0
-100 -109 180 0
100 -180 0
109 -180 0
-177 -174 186 0
177 -186 0
174 -186 0
-178 -110 184 0
178 -184 0
110 -184 0
-179 -174 182 0
179 -182 0
174 -182 0
-180 -110 181 0
180 -181 0
110 -181 0
181 182 -183 0
-181 183 0
-182 183 0
183 184 -185 0
-183 185 0
-184 185 0
186 185 -113 0
-186 113 0
-185 113 0
-120 -134 -148 -162 -176 0
120 176 0
134 176 0
148 176 0
162 176 0
6 0
-7 0
c Force PIs of 2 ckts to be the same:
1 -94 0
-1 94 0
2 -95 0
-2 95 0
3 -96 0
-3 96 0
4 -97 0
-4 97 0
5 -98 0
-5 98 0
6 -99 0
-6 99 0
7 -100 0
-7 100 0
c XOR outputs of 2 ckts:
-18 -111 -187 0
18 111 -187 0
18 -111 187 0
-18 111 187 0
-19 -112 -188 0
19 112 -188 0
19 -112 188 0
-19 112 188 0
c The last OR gate of the miter:
187 188 -189 0
-187 189 0
-188 189 0
189 0
c New ckt:
-192 -193 -211 0
192 211 0
193 211 0
-191 -211 -210 0
191 210 0
211 210 0
-211 -194 -212 0
211 212 0
194 212 0
-209 -210 -207 0
209 207 0
210 207 0
-210 -212 -208 0
210 208 0
212 208 0
197 213 0
-197 -213 0
198 214 0
-198 -214 0
190 215 0
-190 -215 0
-190 -213 217 0
190 -217 0
213 -217 0
-215 -213 218 0
215 -218 0
213 -218 0
-195 -197 219 0
195 -219 0
197 -219 0
-196 -197 220 0
196 -220 0
197 -220 0
-217 -214 231 0
217 -231 0
214 -231 0
-218 -198 224 0
218 -224 0
198 -224 0
-219 -214 222 0
219 -222 0
214 -222 0
-220 -198 221 0
220 -221 0
198 -221 0
221 222 -223 0
-221 223 0
-222 223 0
223 224 -225 0
-223 225 0
-224 225 0
231 225 -216 0
-231 216 0
-225 216 0
199 227 0
-199 -227 0
200 228 0
-200 -228 0
192 229 0
-192 -229 0
-192 -227 231 0
192 -231 0
227 -231 0
-229 -227 232 0
229 -232 0
227 -232 0
-195 -199 233 0
195 -233 0
199 -233 0
-196 -199 234 0
196 -234 0
199 -234 0
-231 -228 245 0
231 -245 0
228 -245 0
-232 -200 238 0
232 -238 0
200 -238 0
-233 -228 236 0
233 -236 0
228 -236 0
-234 -200 235 0
234 -235 0
200 -235 0
235 236 -237 0
-235 237 0
-236 237 0
237 238 -239 0
-237 239 0
-238 239 0
245 239 -230 0
-245 230 0
-239 230 0
201 241 0
-201 -241 0
202 242 0
-202 -242 0
193 243 0
-193 -243 0
-193 -241 245 0
193 -245 0
241 -245 0
-243 -241 246 0
243 -246 0
241 -246 0
-195 -201 247 0
195 -247 0
201 -247 0
-196 -201 248 0
196 -248 0
201 -248 0
-245 -242 259 0
245 -259 0
242 -259 0
-246 -202 252 0
246 -252 0
202 -252 0
-247 -242 250 0
247 -250 0
242 -250 0
-248 -202 249 0
248 -249 0
202 -249 0
249 250 -251 0
-249 251 0
-250 251 0
251 252 -253 0
-251 253 0
-252 253 0
259 253 -244 0
-259 244 0
-253 244 0
203 255 0
-203 -255 0
204 256 0
-204 -256 0
194 257 0
-194 -257 0
-194 -255 259 0
194 -259 0
255 -259 0
-257 -255 260 0
257 -260 0
255 -260 0
-195 -203 261 0
195 -261 0
203 -261 0
-196 -203 262 0
196 -262 0
203 -262 0
-259 -256 273 0
259 -273 0
256 -273 0
-260 -204 266 0
260 -266 0
204 -266 0
-261 -256 264 0
261 -264 0
256 -264 0
-262 -204 263 0
262 -263 0
204 -263 0
263 264 -265 0
-263 265 0
-264 265 0
265 266 -267 0
-265 267 0
-266 267 0
273 267 -258 0
-273 258 0
-267 258 0
205 269 0
-205 -269 0
206 270 0
-206 -270 0
272 271 0
-272 -271 0
-272 -269 273 0
272 -273 0
269 -273 0
-271 -269 274 0
271 -274 0
269 -274 0
-195 -205 275 0
195 -275 0
205 -275 0
-196 -205 276 0
196 -276 0
205 -276 0
-273 -270 282 0
273 -282 0
270 -282 0
-274 -206 280 0
274 -280 0
206 -280 0
-275 -270 278 0
275 -278 0
270 -278 0
-276 -206 277 0
276 -277 0
206 -277 0
277 278 -279 0
-277 279 0
-278 279 0
279 280 -281 0
-279 281 0
-280 281 0
282 281 -209 0
-282 209 0
-281 209 0
-216 -230 -244 -258 -272 0
216 272 0
230 272 0
244 272 0
258 272 0
8 -197 0
-8 197 0
9 -198 0
-9 198 0
10 -199 0
-10 199 0
11 -200 0
-11 200 0
12 -201 0
-12 201 0
13 -202 0
-13 202 0
14 -203 0
-14 203 0
15 -204 0
-15 204 0
16 -205 0
-16 205 0
17 -206 0
-17 206 0
190 0
-191 0
192 0
193 0
-194 0
195 0
-196 0
207 0
-208 0
c New ckt:
-285 -286 -304 0
285 304 0
286 304 0
-284 -304 -303 0
284 303 0
304 303 0
-304 -287 -305 0
304 305 0
287 305 0
-302 -303 -300 0
302 300 0
303 300 0
-303 -305 -301 0
303 301 0
305 301 0
290 306 0
-290 -306 0
291 307 0
-291 -307 0
283 308 0
-283 -308 0
-283 -306 310 0
283 -310 0
306 -310 0
-308 -306 311 0
308 -311 0
306 -311 0
-288 -290 312 0
288 -312 0
290 -312 0
-289 -290 313 0
289 -313 0
290 -313 0
-310 -307 324 0
310 -324 0
307 -324 0
-311 -291 317 0
311 -317 0
291 -317 0
-312 -307 315 0
312 -315 0
307 -315 0
-313 -291 314 0
313 -314 0
291 -314 0
314 315 -316 0
-314 316 0
-315 316 0
316 317 -318 0
-316 318 0
-317 318 0
324 318 -309 0
-324 309 0
-318 309 0
292 320 0
-292 -320 0
293 321 0
-293 -321 0
285 322 0
-285 -322 0
-285 -320 324 0
285 -324 0
320 -324 0
-322 -320 325 0
322 -325 0
320 -325 0
-288 -292 326 0
288 -326 0
292 -326 0
-289 -292 327 0
289 -327 0
292 -327 0
-324 -321 338 0
324 -338 0
321 -338 0
-325 -293 331 0
325 -331 0
293 -331 0
-326 -321 329 0
326 -329 0
321 -329 0
-327 -293 328 0
327 -328 0
293 -328 0
328 329 -330 0
-328 330 0
-329 330 0
330 331 -332 0
-330 332 0
-331 332 0
338 332 -323 0
-338 323 0
-332 323 0
294 334 0
-294 -334 0
295 335 0
-295 -335 0
286 336 0
-286 -336 0
-286 -334 338 0
286 -338 0
334 -338 0
-336 -334 339 0
336 -339 0
334 -339 0
-288 -294 340 0
288 -340 0
294 -340 0
-289 -294 341 0
289 -341 0
294 -341 0
-338 -335 352 0
338 -352 0
335 -352 0
-339 -295 345 0
339 -345 0
295 -345 0
-340 -335 343 0
340 -343 0
335 -343 0
-341 -295 342 0
341 -342 0
295 -342 0
342 343 -344 0
-342 344 0
-343 344 0
344 345 -346 0
-344 346 0
-345 346 0
352 346 -337 0
-352 337 0
-346 337 0
296 348 0
-296 -348 0
297 349 0
-297 -349 0
287 350 0
-287 -350 0
-287 -348 352 0
287 -352 0
348 -352 0
-350 -348 353 0
350 -353 0
348 -353 0
-288 -296 354 0
288 -354 0
296 -354 0
-289 -296 355 0
289 -355 0
296 -355 0
-352 -349 366 0
352 -366 0
349 -366 0
-353 -297 359 0
353 -359 0
297 -359 0
-354 -349 357 0
354 -357 0
349 -357 0
-355 -297 356 0
355 -356 0
297 -356 0
356 357 -358 0
-356 358 0
-357 358 0
358 359 -360 0
-358 360 0
-359 360 0
366 360 -351 0
-366 351 0
-360 351 0
298 362 0
-298 -362 0
299 363 0
-299 -363 0
365 364 0
-365 -364 0
-365 -362 366 0
365 -366 0
362 -366 0
-364 -362 367 0
364 -367 0
362 -367 0
-288 -298 368 0
288 -368 0
298 -368 0
-289 -298 369 0
289 -369 0
298 -369 0
-366 -363 375 0
366 -375 0
363 -375 0
-367 -299 373 0
367 -373 0
299 -373 0
-368 -363 371 0
368 -371 0
363 -371 0
-369 -299 370 0
369 -370 0
299 -370 0
370 371 -372 0
-370 372 0
-371 372 0
372 373 -374 0
-372 374 0
-373 374 0
375 374 -302 0
-375 302 0
-374 302 0
-309 -323 -337 -351 -365 0
309 365 0
323 365 0
337 365 0
351 365 0
101 -290 0
-101 290 0
102 -291 0
-102 291 0
103 -292 0
-103 292 0
104 -293 0
-104 293 0
105 -294 0
-105 294 0
106 -295 0
-106 295 0
107 -296 0
-107 296 0
108 -297 0
-108 297 0
109 -298 0
-109 298 0
110 -299 0
-110 299 0
283 0
-284 0
285 0
286 0
-287 0
288 0
-289 0
300 0
-301 0
